p cnf 66 1008
1 2 3 4 5 6 7 8 9 10 11 12 13 14 15 16 17 18 19 20 21 22 0
23 24 25 26 27 28 29 30 31 32 33 34 35 36 37 38 39 40 41 42 43 44 0
45 46 47 48 49 50 51 52 53 54 55 56 57 58 59 60 61 62 63 64 65 66 0
-1 -11 0
-1 -33 0
-1 -55 0
-23 -11 0
-23 -33 0
-23 -55 0
-45 -11 0
-45 -33 0
-45 -55 0
-1 -13 0
-1 -35 0
-1 -57 0
-23 -13 0
-23 -35 0
-23 -57 0
-45 -13 0
-45 -35 0
-45 -57 0
-1 -14 0
-1 -36 0
-1 -58 0
-23 -14 0
-23 -36 0
-23 -58 0
-45 -14 0
-45 -36 0
-45 -58 0
-1 -16 0
-1 -38 0
-1 -60 0
-23 -16 0
-23 -38 0
-23 -60 0
-45 -16 0
-45 -38 0
-45 -60 0
-1 -17 0
-1 -39 0
-1 -61 0
-23 -17 0
-23 -39 0
-23 -61 0
-45 -17 0
-45 -39 0
-45 -61 0
-1 -22 0
-1 -44 0
-1 -66 0
-23 -22 0
-23 -44 0
-23 -66 0
-45 -22 0
-45 -44 0
-45 -66 0
-2 -3 0
-2 -25 0
-2 -47 0
-24 -3 0
-24 -25 0
-24 -47 0
-46 -3 0
-46 -25 0
-46 -47 0
-2 -8 0
-2 -30 0
-2 -52 0
-24 -8 0
-24 -30 0
-24 -52 0
-46 -8 0
-46 -30 0
-46 -52 0
-2 -9 0
-2 -31 0
-2 -53 0
-24 -9 0
-24 -31 0
-24 -53 0
-46 -9 0
-46 -31 0
-46 -53 0
-3 -5 0
-3 -27 0
-3 -49 0
-25 -5 0
-25 -27 0
-25 -49 0
-47 -5 0
-47 -27 0
-47 -49 0
-3 -7 0
-3 -29 0
-3 -51 0
-25 -7 0
-25 -29 0
-25 -51 0
-47 -7 0
-47 -29 0
-47 -51 0
-3 -10 0
-3 -32 0
-3 -54 0
-25 -10 0
-25 -32 0
-25 -54 0
-47 -10 0
-47 -32 0
-47 -54 0
-3 -14 0
-3 -36 0
-3 -58 0
-25 -14 0
-25 -36 0
-25 -58 0
-47 -14 0
-47 -36 0
-47 -58 0
-3 -19 0
-3 -41 0
-3 -63 0
-25 -19 0
-25 -41 0
-25 -63 0
-47 -19 0
-47 -41 0
-47 -63 0
-4 -5 0
-4 -27 0
-4 -49 0
-26 -5 0
-26 -27 0
-26 -49 0
-48 -5 0
-48 -27 0
-48 -49 0
-4 -6 0
-4 -28 0
-4 -50 0
-26 -6 0
-26 -28 0
-26 -50 0
-48 -6 0
-48 -28 0
-48 -50 0
-4 -9 0
-4 -31 0
-4 -53 0
-26 -9 0
-26 -31 0
-26 -53 0
-48 -9 0
-48 -31 0
-48 -53 0
-4 -17 0
-4 -39 0
-4 -61 0
-26 -17 0
-26 -39 0
-26 -61 0
-48 -17 0
-48 -39 0
-48 -61 0
-4 -21 0
-4 -43 0
-4 -65 0
-26 -21 0
-26 -43 0
-26 -65 0
-48 -21 0
-48 -43 0
-48 -65 0
-5 -9 0
-5 -31 0
-5 -53 0
-27 -9 0
-27 -31 0
-27 -53 0
-49 -9 0
-49 -31 0
-49 -53 0
-5 -17 0
-5 -39 0
-5 -61 0
-27 -17 0
-27 -39 0
-27 -61 0
-49 -17 0
-49 -39 0
-49 -61 0
-5 -18 0
-5 -40 0
-5 -62 0
-27 -18 0
-27 -40 0
-27 -62 0
-49 -18 0
-49 -40 0
-49 -62 0
-5 -19 0
-5 -41 0
-5 -63 0
-27 -19 0
-27 -41 0
-27 -63 0
-49 -19 0
-49 -41 0
-49 -63 0
-5 -22 0
-5 -44 0
-5 -66 0
-27 -22 0
-27 -44 0
-27 -66 0
-49 -22 0
-49 -44 0
-49 -66 0
-6 -8 0
-6 -30 0
-6 -52 0
-28 -8 0
-28 -30 0
-28 -52 0
-50 -8 0
-50 -30 0
-50 -52 0
-6 -10 0
-6 -32 0
-6 -54 0
-28 -10 0
-28 -32 0
-28 -54 0
-50 -10 0
-50 -32 0
-50 -54 0
-6 -15 0
-6 -37 0
-6 -59 0
-28 -15 0
-28 -37 0
-28 -59 0
-50 -15 0
-50 -37 0
-50 -59 0
-7 -8 0
-7 -30 0
-7 -52 0
-29 -8 0
-29 -30 0
-29 -52 0
-51 -8 0
-51 -30 0
-51 -52 0
-7 -14 0
-7 -36 0
-7 -58 0
-29 -14 0
-29 -36 0
-29 -58 0
-51 -14 0
-51 -36 0
-51 -58 0
-8 -19 0
-8 -41 0
-8 -63 0
-30 -19 0
-30 -41 0
-30 -63 0
-52 -19 0
-52 -41 0
-52 -63 0
-9 -10 0
-9 -32 0
-9 -54 0
-31 -10 0
-31 -32 0
-31 -54 0
-53 -10 0
-53 -32 0
-53 -54 0
-9 -14 0
-9 -36 0
-9 -58 0
-31 -14 0
-31 -36 0
-31 -58 0
-53 -14 0
-53 -36 0
-53 -58 0
-9 -19 0
-9 -41 0
-9 -63 0
-31 -19 0
-31 -41 0
-31 -63 0
-53 -19 0
-53 -41 0
-53 -63 0
-10 -13 0
-10 -35 0
-10 -57 0
-32 -13 0
-32 -35 0
-32 -57 0
-54 -13 0
-54 -35 0
-54 -57 0
-10 -17 0
-10 -39 0
-10 -61 0
-32 -17 0
-32 -39 0
-32 -61 0
-54 -17 0
-54 -39 0
-54 -61 0
-10 -20 0
-10 -42 0
-10 -64 0
-32 -20 0
-32 -42 0
-32 -64 0
-54 -20 0
-54 -42 0
-54 -64 0
-11 -13 0
-11 -35 0
-11 -57 0
-33 -13 0
-33 -35 0
-33 -57 0
-55 -13 0
-55 -35 0
-55 -57 0
-14 -18 0
-14 -40 0
-14 -62 0
-36 -18 0
-36 -40 0
-36 -62 0
-58 -18 0
-58 -40 0
-58 -62 0
-14 -20 0
-14 -42 0
-14 -64 0
-36 -20 0
-36 -42 0
-36 -64 0
-58 -20 0
-58 -42 0
-58 -64 0
-15 -21 0
-15 -43 0
-15 -65 0
-37 -21 0
-37 -43 0
-37 -65 0
-59 -21 0
-59 -43 0
-59 -65 0
-17 -19 0
-17 -41 0
-17 -63 0
-39 -19 0
-39 -41 0
-39 -63 0
-61 -19 0
-61 -41 0
-61 -63 0
-1 -2 0
-1 -3 0
-1 -4 0
-1 -5 0
-1 -6 0
-1 -7 0
-1 -8 0
-1 -9 0
-1 -10 0
-1 -12 0
-1 -15 0
-1 -18 0
-1 -19 0
-1 -20 0
-1 -21 0
-2 -4 0
-2 -5 0
-2 -6 0
-2 -7 0
-2 -10 0
-2 -11 0
-2 -12 0
-2 -13 0
-2 -14 0
-2 -15 0
-2 -16 0
-2 -17 0
-2 -18 0
-2 -19 0
-2 -20 0
-2 -21 0
-2 -22 0
-3 -4 0
-3 -6 0
-3 -8 0
-3 -9 0
-3 -11 0
-3 -12 0
-3 -13 0
-3 -15 0
-3 -16 0
-3 -17 0
-3 -18 0
-3 -20 0
-3 -21 0
-3 -22 0
-4 -7 0
-4 -8 0
-4 -10 0
-4 -11 0
-4 -12 0
-4 -13 0
-4 -14 0
-4 -15 0
-4 -16 0
-4 -18 0
-4 -19 0
-4 -20 0
-4 -22 0
-5 -6 0
-5 -7 0
-5 -8 0
-5 -10 0
-5 -11 0
-5 -12 0
-5 -13 0
-5 -14 0
-5 -15 0
-5 -16 0
-5 -20 0
-5 -21 0
-6 -7 0
-6 -9 0
-6 -11 0
-6 -12 0
-6 -13 0
-6 -14 0
-6 -16 0
-6 -17 0
-6 -18 0
-6 -19 0
-6 -20 0
-6 -21 0
-6 -22 0
-7 -9 0
-7 -10 0
-7 -11 0
-7 -12 0
-7 -13 0
-7 -15 0
-7 -16 0
-7 -17 0
-7 -18 0
-7 -19 0
-7 -20 0
-7 -21 0
-7 -22 0
-8 -9 0
-8 -10 0
-8 -11 0
-8 -12 0
-8 -13 0
-8 -14 0
-8 -15 0
-8 -16 0
-8 -17 0
-8 -18 0
-8 -20 0
-8 -21 0
-8 -22 0
-9 -11 0
-9 -12 0
-9 -13 0
-9 -15 0
-9 -16 0
-9 -17 0
-9 -18 0
-9 -20 0
-9 -21 0
-9 -22 0
-10 -11 0
-10 -12 0
-10 -14 0
-10 -15 0
-10 -16 0
-10 -18 0
-10 -19 0
-10 -21 0
-10 -22 0
-11 -12 0
-11 -14 0
-11 -15 0
-11 -16 0
-11 -17 0
-11 -18 0
-11 -19 0
-11 -20 0
-11 -21 0
-11 -22 0
-12 -13 0
-12 -14 0
-12 -15 0
-12 -16 0
-12 -17 0
-12 -18 0
-12 -19 0
-12 -20 0
-12 -21 0
-12 -22 0
-13 -14 0
-13 -15 0
-13 -16 0
-13 -17 0
-13 -18 0
-13 -19 0
-13 -20 0
-13 -21 0
-13 -22 0
-14 -15 0
-14 -16 0
-14 -17 0
-14 -19 0
-14 -21 0
-14 -22 0
-15 -16 0
-15 -17 0
-15 -18 0
-15 -19 0
-15 -20 0
-15 -22 0
-16 -17 0
-16 -18 0
-16 -19 0
-16 -20 0
-16 -21 0
-16 -22 0
-17 -18 0
-17 -20 0
-17 -21 0
-17 -22 0
-18 -19 0
-18 -20 0
-18 -21 0
-18 -22 0
-19 -20 0
-19 -21 0
-19 -22 0
-20 -21 0
-20 -22 0
-21 -22 0
-23 -24 0
-23 -25 0
-23 -26 0
-23 -27 0
-23 -28 0
-23 -29 0
-23 -30 0
-23 -31 0
-23 -32 0
-23 -34 0
-23 -37 0
-23 -40 0
-23 -41 0
-23 -42 0
-23 -43 0
-24 -26 0
-24 -27 0
-24 -28 0
-24 -29 0
-24 -32 0
-24 -33 0
-24 -34 0
-24 -35 0
-24 -36 0
-24 -37 0
-24 -38 0
-24 -39 0
-24 -40 0
-24 -41 0
-24 -42 0
-24 -43 0
-24 -44 0
-25 -26 0
-25 -28 0
-25 -30 0
-25 -31 0
-25 -33 0
-25 -34 0
-25 -35 0
-25 -37 0
-25 -38 0
-25 -39 0
-25 -40 0
-25 -42 0
-25 -43 0
-25 -44 0
-26 -29 0
-26 -30 0
-26 -32 0
-26 -33 0
-26 -34 0
-26 -35 0
-26 -36 0
-26 -37 0
-26 -38 0
-26 -40 0
-26 -41 0
-26 -42 0
-26 -44 0
-27 -28 0
-27 -29 0
-27 -30 0
-27 -32 0
-27 -33 0
-27 -34 0
-27 -35 0
-27 -36 0
-27 -37 0
-27 -38 0
-27 -42 0
-27 -43 0
-28 -29 0
-28 -31 0
-28 -33 0
-28 -34 0
-28 -35 0
-28 -36 0
-28 -38 0
-28 -39 0
-28 -40 0
-28 -41 0
-28 -42 0
-28 -43 0
-28 -44 0
-29 -31 0
-29 -32 0
-29 -33 0
-29 -34 0
-29 -35 0
-29 -37 0
-29 -38 0
-29 -39 0
-29 -40 0
-29 -41 0
-29 -42 0
-29 -43 0
-29 -44 0
-30 -31 0
-30 -32 0
-30 -33 0
-30 -34 0
-30 -35 0
-30 -36 0
-30 -37 0
-30 -38 0
-30 -39 0
-30 -40 0
-30 -42 0
-30 -43 0
-30 -44 0
-31 -33 0
-31 -34 0
-31 -35 0
-31 -37 0
-31 -38 0
-31 -39 0
-31 -40 0
-31 -42 0
-31 -43 0
-31 -44 0
-32 -33 0
-32 -34 0
-32 -36 0
-32 -37 0
-32 -38 0
-32 -40 0
-32 -41 0
-32 -43 0
-32 -44 0
-33 -34 0
-33 -36 0
-33 -37 0
-33 -38 0
-33 -39 0
-33 -40 0
-33 -41 0
-33 -42 0
-33 -43 0
-33 -44 0
-34 -35 0
-34 -36 0
-34 -37 0
-34 -38 0
-34 -39 0
-34 -40 0
-34 -41 0
-34 -42 0
-34 -43 0
-34 -44 0
-35 -36 0
-35 -37 0
-35 -38 0
-35 -39 0
-35 -40 0
-35 -41 0
-35 -42 0
-35 -43 0
-35 -44 0
-36 -37 0
-36 -38 0
-36 -39 0
-36 -41 0
-36 -43 0
-36 -44 0
-37 -38 0
-37 -39 0
-37 -40 0
-37 -41 0
-37 -42 0
-37 -44 0
-38 -39 0
-38 -40 0
-38 -41 0
-38 -42 0
-38 -43 0
-38 -44 0
-39 -40 0
-39 -42 0
-39 -43 0
-39 -44 0
-40 -41 0
-40 -42 0
-40 -43 0
-40 -44 0
-41 -42 0
-41 -43 0
-41 -44 0
-42 -43 0
-42 -44 0
-43 -44 0
-45 -46 0
-45 -47 0
-45 -48 0
-45 -49 0
-45 -50 0
-45 -51 0
-45 -52 0
-45 -53 0
-45 -54 0
-45 -56 0
-45 -59 0
-45 -62 0
-45 -63 0
-45 -64 0
-45 -65 0
-46 -48 0
-46 -49 0
-46 -50 0
-46 -51 0
-46 -54 0
-46 -55 0
-46 -56 0
-46 -57 0
-46 -58 0
-46 -59 0
-46 -60 0
-46 -61 0
-46 -62 0
-46 -63 0
-46 -64 0
-46 -65 0
-46 -66 0
-47 -48 0
-47 -50 0
-47 -52 0
-47 -53 0
-47 -55 0
-47 -56 0
-47 -57 0
-47 -59 0
-47 -60 0
-47 -61 0
-47 -62 0
-47 -64 0
-47 -65 0
-47 -66 0
-48 -51 0
-48 -52 0
-48 -54 0
-48 -55 0
-48 -56 0
-48 -57 0
-48 -58 0
-48 -59 0
-48 -60 0
-48 -62 0
-48 -63 0
-48 -64 0
-48 -66 0
-49 -50 0
-49 -51 0
-49 -52 0
-49 -54 0
-49 -55 0
-49 -56 0
-49 -57 0
-49 -58 0
-49 -59 0
-49 -60 0
-49 -64 0
-49 -65 0
-50 -51 0
-50 -53 0
-50 -55 0
-50 -56 0
-50 -57 0
-50 -58 0
-50 -60 0
-50 -61 0
-50 -62 0
-50 -63 0
-50 -64 0
-50 -65 0
-50 -66 0
-51 -53 0
-51 -54 0
-51 -55 0
-51 -56 0
-51 -57 0
-51 -59 0
-51 -60 0
-51 -61 0
-51 -62 0
-51 -63 0
-51 -64 0
-51 -65 0
-51 -66 0
-52 -53 0
-52 -54 0
-52 -55 0
-52 -56 0
-52 -57 0
-52 -58 0
-52 -59 0
-52 -60 0
-52 -61 0
-52 -62 0
-52 -64 0
-52 -65 0
-52 -66 0
-53 -55 0
-53 -56 0
-53 -57 0
-53 -59 0
-53 -60 0
-53 -61 0
-53 -62 0
-53 -64 0
-53 -65 0
-53 -66 0
-54 -55 0
-54 -56 0
-54 -58 0
-54 -59 0
-54 -60 0
-54 -62 0
-54 -63 0
-54 -65 0
-54 -66 0
-55 -56 0
-55 -58 0
-55 -59 0
-55 -60 0
-55 -61 0
-55 -62 0
-55 -63 0
-55 -64 0
-55 -65 0
-55 -66 0
-56 -57 0
-56 -58 0
-56 -59 0
-56 -60 0
-56 -61 0
-56 -62 0
-56 -63 0
-56 -64 0
-56 -65 0
-56 -66 0
-57 -58 0
-57 -59 0
-57 -60 0
-57 -61 0
-57 -62 0
-57 -63 0
-57 -64 0
-57 -65 0
-57 -66 0
-58 -59 0
-58 -60 0
-58 -61 0
-58 -63 0
-58 -65 0
-58 -66 0
-59 -60 0
-59 -61 0
-59 -62 0
-59 -63 0
-59 -64 0
-59 -66 0
-60 -61 0
-60 -62 0
-60 -63 0
-60 -64 0
-60 -65 0
-60 -66 0
-61 -62 0
-61 -64 0
-61 -65 0
-61 -66 0
-62 -63 0
-62 -64 0
-62 -65 0
-62 -66 0
-63 -64 0
-63 -65 0
-63 -66 0
-64 -65 0
-64 -66 0
-65 -66 0
-1 -23 0
-1 -45 0
-23 -45 0
-2 -24 0
-2 -46 0
-24 -46 0
-3 -25 0
-3 -47 0
-25 -47 0
-4 -26 0
-4 -48 0
-26 -48 0
-5 -27 0
-5 -49 0
-27 -49 0
-6 -28 0
-6 -50 0
-28 -50 0
-7 -29 0
-7 -51 0
-29 -51 0
-8 -30 0
-8 -52 0
-30 -52 0
-9 -31 0
-9 -53 0
-31 -53 0
-10 -32 0
-10 -54 0
-32 -54 0
-11 -33 0
-11 -55 0
-33 -55 0
-12 -34 0
-12 -56 0
-34 -56 0
-13 -35 0
-13 -57 0
-35 -57 0
-14 -36 0
-14 -58 0
-36 -58 0
-15 -37 0
-15 -59 0
-37 -59 0
-16 -38 0
-16 -60 0
-38 -60 0
-17 -39 0
-17 -61 0
-39 -61 0
-18 -40 0
-18 -62 0
-40 -62 0
-19 -41 0
-19 -63 0
-41 -63 0
-20 -42 0
-20 -64 0
-42 -64 0
-21 -43 0
-21 -65 0
-43 -65 0
-22 -44 0
-22 -66 0
-44 -66 0
